34992
101000111001010011010101110101
7 11 21 16 21 11 21 17 27 27 29 0 23 23 19 7 13 8 19 0 11 16 2 24 13 7 0 17 29 17 19 19 29 21 27 6 13 8 24 16 27 13 6 29 8 19 13 21 17 29 24 16 2 21 8 6 11 17 16 11 29 0 7 29 13 11 2 23 19 11 7 25 19 8 23 23 8 0 17 0 8 23 29 25 29 13 6 2 27 7 0 6 7 25 0 13 11 19 0 0 17 21 25 7 19 0 29 24 16 13 19 29 27 6 25 8 6 11 6 8 8 11 17 19 23 16 2 27 8 2 17 16 25 23 2 8 13 13 17 17 11 27 11 11 7 2 21 21 27 25 24 24 23 17 8 11 2 16 13 13 13 27 23 25 2 27 23 29 13 21 8 8 17 17 19 2 24 8 6 8 2 21 2 6 6 8 11 23 16 2 2 21 6 29 25 25 7 21 13 17 